c 2 of 3 AND 1 of 3 -> UNSAT
c ========================================
p cnf 3 16

c 2 of 3
1 2 3 0
-1 -2 -3 0
-1 2 3 0
1 -2 3 0
1 2 -3 0
1 2 0
1 3 0
2 3 0

c 1 of 3
1 2 3 0
-1 -2 -3 0
-1 -2 3 0
-1 2 -3 0
1 -2 -3 0
-1 -2 0
-1 -3 0
-2 -3 0

c UNSAT